
Log started (V12.6.3.0) Tue Jun  6 14:47:20 2017

New value for default parallel thread count: 1

Problem '/tmp/tmp2IXXAm.pyomo.lp' read.
Read time = 0.05 sec. (4.53 ticks)

Problem name         : /tmp/tmp2IXXAm.pyomo.lp
Objective sense      : Minimize
Variables            :   46802  [Nneg: 46657,  Binary: 144,  General Integer: 1]
Objective nonzeros   :       1
Linear constraints   :   22610  [Less: 144,  Equal: 22466]
  Nonzeros           :  162220
  RHS nonzeros       :     111

Variables            : Min LB: 0.000000         Max UB: 1.000000       
Objective nonzeros   : Min   : 1.000000         Max   : 1.000000       
Linear constraints   :
  Nonzeros           : Min   : 1.000000         Max   : 4752.000       
  RHS nonzeros       : Min   : 1.000000         Max   : 4897.760       
Tried aggregator 5 times.
MIP Presolve eliminated 22429 rows and 45488 columns.
MIP Presolve modified 1 coefficients.
Aggregator did 18 substitutions.
Reduced MIP has 163 rows, 1296 columns, and 3760 nonzeros.
Reduced MIP has 64 binaries, 0 generals, 0 SOSs, and 0 indicators.
Presolve time = 0.03 sec. (55.15 ticks)
Probing time = 0.00 sec. (0.13 ticks)
Tried aggregator 1 time.
Reduced MIP has 163 rows, 1296 columns, and 3760 nonzeros.
Reduced MIP has 64 binaries, 0 generals, 0 SOSs, and 0 indicators.
Presolve time = 0.00 sec. (1.37 ticks)
Probing time = 0.00 sec. (0.13 ticks)
Clique table members: 1.
MIP emphasis: balance optimality and feasibility.
MIP search method: dynamic search.
Parallel mode: none, using 1 thread.
Root relaxation solution time = 0.00 sec. (4.75 ticks)

        Nodes                                         Cuts/
   Node  Left     Objective  IInf  Best Integer    Best Bound    ItCnt     Gap

      0     0       24.5447    11                     24.5447      490         
*     0+    0                           30.0000       24.5447            18.18%
      0     0       25.0636    11       30.0000      Cuts: 90      611   16.45%
      0     0       25.0636     7       30.0000     Cuts: 137      760   16.45%
*     0+    0                           29.0000       25.0636            13.57%
      0     0       25.0698    12       29.0000     Cuts: 132      871   13.55%
      0     0       25.0700     8       29.0000     Cuts: 140      977   13.55%
      0     0       25.0700    11       29.0000     Cuts: 125     1088   13.55%
      0     0       25.0700     8       29.0000      Cuts: 15     1099   13.55%
*     0+    0                           26.0000       25.0700             3.58%
      0     0        cutoff             26.0000       25.0700     1099    3.58%
Elapsed time = 0.10 sec. (146.56 ticks, tree = 0.01 MB, solutions = 3)

Cover cuts applied:  1
Implied bound cuts applied:  9
Flow cuts applied:  4
Mixed integer rounding cuts applied:  11
Gomory fractional cuts applied:  1

Root node processing (before b&c):
  Real time             =    0.10 sec. (148.48 ticks)
Sequential b&c:
  Real time             =    0.00 sec. (0.00 ticks)
                          ------------
Total (root+branch&cut) =    0.10 sec. (148.48 ticks)

Solution pool: 3 solutions saved.

MIP - Integer optimal solution:  Objective =  2.6000000000e+01
Solution time =    0.10 sec.  Iterations = 1099  Nodes = 0
Deterministic time = 148.61 ticks  (1425.46 ticks/sec)


Incumbent solution written to file '/tmp/tmpr_wMXy.cplex.sol'.

Log started (V12.6.3.0) Mon Jul 24 16:45:43 2017

New value for default parallel thread count: 1

Problem '/tmp/tmpipSr4R.pyomo.lp' read.
Read time = 0.04 sec. (4.53 ticks)

Problem name         : /tmp/tmpipSr4R.pyomo.lp
Objective sense      : Minimize
Variables            :   46802  [Nneg: 46657,  Binary: 144,  General Integer: 1]
Objective nonzeros   :       1
Linear constraints   :   22610  [Less: 144,  Equal: 22466]
  Nonzeros           :  162220
  RHS nonzeros       :     111

Variables            : Min LB: 0.000000         Max UB: 1.000000       
Objective nonzeros   : Min   : 1.000000         Max   : 1.000000       
Linear constraints   :
  Nonzeros           : Min   : 1.000000         Max   : 4752.000       
  RHS nonzeros       : Min   : 1.000000         Max   : 4897.760       
Tried aggregator 5 times.
MIP Presolve eliminated 22429 rows and 45488 columns.
MIP Presolve modified 1 coefficients.
Aggregator did 18 substitutions.
Reduced MIP has 163 rows, 1296 columns, and 3760 nonzeros.
Reduced MIP has 64 binaries, 0 generals, 0 SOSs, and 0 indicators.
Presolve time = 0.03 sec. (55.15 ticks)
Probing time = 0.00 sec. (0.13 ticks)
Tried aggregator 1 time.
Reduced MIP has 163 rows, 1296 columns, and 3760 nonzeros.
Reduced MIP has 64 binaries, 0 generals, 0 SOSs, and 0 indicators.
Presolve time = 0.00 sec. (1.37 ticks)
Probing time = 0.00 sec. (0.13 ticks)
Clique table members: 1.
MIP emphasis: balance optimality and feasibility.
MIP search method: dynamic search.
Parallel mode: none, using 1 thread.
Root relaxation solution time = 0.00 sec. (4.75 ticks)

        Nodes                                         Cuts/
   Node  Left     Objective  IInf  Best Integer    Best Bound    ItCnt     Gap

      0     0       24.5447    11                     24.5447      490         
*     0+    0                           30.0000       24.5447            18.18%
      0     0       25.0636    11       30.0000      Cuts: 90      611   16.45%
      0     0       25.0636     7       30.0000     Cuts: 137      760   16.45%
*     0+    0                           29.0000       25.0636            13.57%
      0     0       25.0698    12       29.0000     Cuts: 132      871   13.55%
      0     0       25.0700     8       29.0000     Cuts: 140      977   13.55%
      0     0       25.0700    11       29.0000     Cuts: 125     1088   13.55%
      0     0       25.0700     8       29.0000      Cuts: 15     1099   13.55%
*     0+    0                           26.0000       25.0700             3.58%
      0     0        cutoff             26.0000       25.0700     1099    3.58%
Elapsed time = 0.11 sec. (146.56 ticks, tree = 0.01 MB, solutions = 3)

Cover cuts applied:  1
Implied bound cuts applied:  9
Flow cuts applied:  4
Mixed integer rounding cuts applied:  11
Gomory fractional cuts applied:  1

Root node processing (before b&c):
  Real time             =    0.11 sec. (148.48 ticks)
Sequential b&c:
  Real time             =    0.00 sec. (0.00 ticks)
                          ------------
Total (root+branch&cut) =    0.11 sec. (148.48 ticks)

Solution pool: 3 solutions saved.

MIP - Integer optimal solution:  Objective =  2.6000000000e+01
Solution time =    0.11 sec.  Iterations = 1099  Nodes = 0
Deterministic time = 148.61 ticks  (1378.00 ticks/sec)


Incumbent solution written to file '/tmp/tmpeFPdeV.cplex.sol'.

Log started (V12.6.3.0) Mon Jul 24 16:58:33 2017

New value for default parallel thread count: 1

Problem '/tmp/tmpFC5yp_.pyomo.lp' read.
Read time = 0.04 sec. (4.53 ticks)

Problem name         : /tmp/tmpFC5yp_.pyomo.lp
Objective sense      : Minimize
Variables            :   46802  [Nneg: 46657,  Binary: 144,  General Integer: 1]
Objective nonzeros   :       1
Linear constraints   :   22610  [Less: 144,  Equal: 22466]
  Nonzeros           :  162220
  RHS nonzeros       :     111

Variables            : Min LB: 0.000000         Max UB: 1.000000       
Objective nonzeros   : Min   : 1.000000         Max   : 1.000000       
Linear constraints   :
  Nonzeros           : Min   : 1.000000         Max   : 4752.000       
  RHS nonzeros       : Min   : 1.000000         Max   : 4897.760       
Tried aggregator 5 times.
MIP Presolve eliminated 22429 rows and 45488 columns.
MIP Presolve modified 1 coefficients.
Aggregator did 18 substitutions.
Reduced MIP has 163 rows, 1296 columns, and 3760 nonzeros.
Reduced MIP has 64 binaries, 0 generals, 0 SOSs, and 0 indicators.
Presolve time = 0.03 sec. (55.15 ticks)
Probing time = 0.00 sec. (0.13 ticks)
Tried aggregator 1 time.
Reduced MIP has 163 rows, 1296 columns, and 3760 nonzeros.
Reduced MIP has 64 binaries, 0 generals, 0 SOSs, and 0 indicators.
Presolve time = 0.00 sec. (1.37 ticks)
Probing time = 0.00 sec. (0.13 ticks)
Clique table members: 1.
MIP emphasis: balance optimality and feasibility.
MIP search method: dynamic search.
Parallel mode: none, using 1 thread.
Root relaxation solution time = 0.00 sec. (4.75 ticks)

        Nodes                                         Cuts/
   Node  Left     Objective  IInf  Best Integer    Best Bound    ItCnt     Gap

      0     0       24.5447    11                     24.5447      490         
*     0+    0                           30.0000       24.5447            18.18%
      0     0       25.0636    11       30.0000      Cuts: 90      611   16.45%
      0     0       25.0636     7       30.0000     Cuts: 137      760   16.45%
*     0+    0                           29.0000       25.0636            13.57%
      0     0       25.0698    12       29.0000     Cuts: 132      871   13.55%
      0     0       25.0700     8       29.0000     Cuts: 140      977   13.55%
      0     0       25.0700    11       29.0000     Cuts: 125     1088   13.55%
      0     0       25.0700     8       29.0000      Cuts: 15     1099   13.55%
*     0+    0                           26.0000       25.0700             3.58%
      0     0        cutoff             26.0000       25.0700     1099    3.58%
Elapsed time = 0.10 sec. (146.56 ticks, tree = 0.01 MB, solutions = 3)

Cover cuts applied:  1
Implied bound cuts applied:  9
Flow cuts applied:  4
Mixed integer rounding cuts applied:  11
Gomory fractional cuts applied:  1

Root node processing (before b&c):
  Real time             =    0.10 sec. (148.48 ticks)
Sequential b&c:
  Real time             =    0.00 sec. (0.00 ticks)
                          ------------
Total (root+branch&cut) =    0.10 sec. (148.48 ticks)

Solution pool: 3 solutions saved.

MIP - Integer optimal solution:  Objective =  2.6000000000e+01
Solution time =    0.10 sec.  Iterations = 1099  Nodes = 0
Deterministic time = 148.61 ticks  (1441.64 ticks/sec)


Incumbent solution written to file '/tmp/tmpGermEI.cplex.sol'.

Log started (V12.6.3.0) Wed Jul 26 14:03:02 2017

New value for default parallel thread count: 1

Problem '/tmp/tmppwdPzQ.pyomo.lp' read.
Read time = 0.05 sec. (4.53 ticks)

Problem name         : /tmp/tmppwdPzQ.pyomo.lp
Objective sense      : Minimize
Variables            :   46802  [Nneg: 46657,  Binary: 144,  General Integer: 1]
Objective nonzeros   :       1
Linear constraints   :   22610  [Less: 144,  Equal: 22466]
  Nonzeros           :  162220
  RHS nonzeros       :     111

Variables            : Min LB: 0.000000         Max UB: 1.000000       
Objective nonzeros   : Min   : 1.000000         Max   : 1.000000       
Linear constraints   :
  Nonzeros           : Min   : 1.000000         Max   : 4752.000       
  RHS nonzeros       : Min   : 1.000000         Max   : 4897.760       
Tried aggregator 5 times.
MIP Presolve eliminated 22429 rows and 45488 columns.
MIP Presolve modified 1 coefficients.
Aggregator did 18 substitutions.
Reduced MIP has 163 rows, 1296 columns, and 3760 nonzeros.
Reduced MIP has 64 binaries, 0 generals, 0 SOSs, and 0 indicators.
Presolve time = 0.03 sec. (55.15 ticks)
Probing time = 0.00 sec. (0.13 ticks)
Tried aggregator 1 time.
Reduced MIP has 163 rows, 1296 columns, and 3760 nonzeros.
Reduced MIP has 64 binaries, 0 generals, 0 SOSs, and 0 indicators.
Presolve time = 0.00 sec. (1.37 ticks)
Probing time = 0.00 sec. (0.13 ticks)
Clique table members: 1.
MIP emphasis: balance optimality and feasibility.
MIP search method: dynamic search.
Parallel mode: none, using 1 thread.
Root relaxation solution time = 0.00 sec. (4.75 ticks)

        Nodes                                         Cuts/
   Node  Left     Objective  IInf  Best Integer    Best Bound    ItCnt     Gap

      0     0       24.5447    11                     24.5447      490         
*     0+    0                           30.0000       24.5447            18.18%
      0     0       25.0636    11       30.0000      Cuts: 90      611   16.45%
      0     0       25.0636     7       30.0000     Cuts: 137      760   16.45%
*     0+    0                           29.0000       25.0636            13.57%
      0     0       25.0698    12       29.0000     Cuts: 132      871   13.55%
      0     0       25.0700     8       29.0000     Cuts: 140      977   13.55%
      0     0       25.0700    11       29.0000     Cuts: 125     1088   13.55%
      0     0       25.0700     8       29.0000      Cuts: 15     1099   13.55%
*     0+    0                           26.0000       25.0700             3.58%
      0     0        cutoff             26.0000       25.0700     1099    3.58%
Elapsed time = 0.10 sec. (146.56 ticks, tree = 0.01 MB, solutions = 3)

Cover cuts applied:  1
Implied bound cuts applied:  9
Flow cuts applied:  4
Mixed integer rounding cuts applied:  11
Gomory fractional cuts applied:  1

Root node processing (before b&c):
  Real time             =    0.10 sec. (148.48 ticks)
Sequential b&c:
  Real time             =    0.00 sec. (0.00 ticks)
                          ------------
Total (root+branch&cut) =    0.10 sec. (148.48 ticks)

Solution pool: 3 solutions saved.

MIP - Integer optimal solution:  Objective =  2.6000000000e+01
Solution time =    0.10 sec.  Iterations = 1099  Nodes = 0
Deterministic time = 148.61 ticks  (1433.13 ticks/sec)


Incumbent solution written to file '/tmp/tmpliVTJx.cplex.sol'.
